
Gurobi 7.0.2 (win64, Python) logging started 03/26/17 23:03:43


Gurobi 7.0.2 (win64, Python) logging started 03/26/17 23:41:51


Gurobi 7.0.2 (win64, Python) logging started 03/26/17 23:56:40


Gurobi 7.0.2 (win64, Python) logging started 03/27/17 00:01:33


Gurobi 7.0.2 (win64, Python) logging started 03/27/17 00:03:20


Gurobi 7.0.2 (win64, Python) logging started 03/27/17 00:25:48


Gurobi 7.0.2 (win64, Python) logging started 03/27/17 00:32:38


Gurobi 7.0.2 (win64, Python) logging started 03/27/17 01:48:56


Gurobi 7.0.2 (win64, Python) logging started 03/27/17 01:49:48


Gurobi 7.0.2 (win64, Python) logging started 03/27/17 01:51:46


Gurobi 7.0.2 (win64, Python) logging started 03/27/17 02:19:49


Gurobi 7.0.2 (win64, Python) logging started 03/27/17 02:23:41


Gurobi 7.0.2 (win64, Python) logging started 03/27/17 02:34:53


Gurobi 7.0.2 (win64, Python) logging started 03/27/17 02:46:08


Gurobi 7.0.2 (win64, Python) logging started 03/27/17 13:32:33


Gurobi 7.0.2 (win64, Python) logging started 03/27/17 13:40:14


Gurobi 7.0.2 (win64, Python) logging started 03/27/17 14:05:20


Gurobi 7.0.2 (win64, Python) logging started 03/27/17 17:26:01


Gurobi 7.0.2 (win64, Python) logging started 03/27/17 17:30:19


Gurobi 7.0.2 (win64, Python) logging started 03/27/17 17:33:51


Gurobi 7.0.2 (win64, Python) logging started 03/27/17 18:00:50


Gurobi 7.0.2 (win64, Python) logging started 03/27/17 18:05:41


Gurobi 7.0.2 (win64, Python) logging started 03/27/17 18:08:05


Gurobi 7.0.2 (win64, Python) logging started 03/27/17 18:12:33


Gurobi 7.0.2 (win64, Python) logging started 03/27/17 22:37:51


Gurobi 7.0.2 (win64, Python) logging started 03/27/17 22:38:31


Gurobi 7.0.2 (win64, Python) logging started 03/27/17 22:42:04


Gurobi 7.0.2 (win64, Python) logging started 03/27/17 22:42:54


Gurobi 7.0.2 (win64, Python) logging started 03/27/17 23:14:42


Gurobi 7.0.2 (win64, Python) logging started 03/28/17 00:00:01


Gurobi 7.0.1 (win64, Python) logging started 03/28/17 17:47:22

Warning: Gurobi version mismatch between Python 7.0.2 and C library 7.0.1
Parameter OutputFlag unchanged
   Value: 1  Min: 0  Max: 1  Default: 1
Parameter OutputFlag unchanged
   Value: 1  Min: 0  Max: 1  Default: 1

Gurobi 7.0.1 (win64, Python) logging started 03/28/17 17:48:55

Warning: Gurobi version mismatch between Python 7.0.2 and C library 7.0.1
Parameter OutputFlag unchanged
   Value: 1  Min: 0  Max: 1  Default: 1

Gurobi 7.0.1 (win64, Python) logging started 03/28/17 17:51:37

Warning: Gurobi version mismatch between Python 7.0.2 and C library 7.0.1
Parameter OutputFlag unchanged
   Value: 1  Min: 0  Max: 1  Default: 1

Gurobi 7.0.1 (win64, Python) logging started 03/28/17 18:01:17

Warning: Gurobi version mismatch between Python 7.0.2 and C library 7.0.1
Parameter OutputFlag unchanged
   Value: 1  Min: 0  Max: 1  Default: 1

Gurobi 7.0.1 (win64, Python) logging started 03/28/17 19:38:17

Warning: Gurobi version mismatch between Python 7.0.2 and C library 7.0.1
Parameter OutputFlag unchanged
   Value: 1  Min: 0  Max: 1  Default: 1

Gurobi 7.0.1 (win64, Python) logging started 03/28/17 19:42:59

Warning: Gurobi version mismatch between Python 7.0.2 and C library 7.0.1
Parameter OutputFlag unchanged
   Value: 1  Min: 0  Max: 1  Default: 1

Gurobi 7.0.1 (win64, Python) logging started 03/31/17 12:40:31

Warning: Gurobi version mismatch between Python 7.0.2 and C library 7.0.1
Parameter OutputFlag unchanged
   Value: 1  Min: 0  Max: 1  Default: 1

Gurobi 7.0.1 (win64, Python) logging started 03/31/17 12:45:42

Warning: Gurobi version mismatch between Python 7.0.2 and C library 7.0.1
Parameter OutputFlag unchanged
   Value: 1  Min: 0  Max: 1  Default: 1
Changed value of parameter LazyConstraints to 1
   Prev: 0  Min: 0  Max: 1  Default: 0
Parameter OutputFlag unchanged
   Value: 1  Min: 0  Max: 1  Default: 1
Changed value of parameter LazyConstraints to 1
   Prev: 0  Min: 0  Max: 1  Default: 0

Gurobi 7.0.1 (win64, Python) logging started 03/31/17 12:47:46

Warning: Gurobi version mismatch between Python 7.0.2 and C library 7.0.1
Parameter OutputFlag unchanged
   Value: 1  Min: 0  Max: 1  Default: 1

Gurobi 7.0.1 (win64, Python) logging started 03/31/17 12:50:31

Warning: Gurobi version mismatch between Python 7.0.2 and C library 7.0.1
Parameter OutputFlag unchanged
   Value: 1  Min: 0  Max: 1  Default: 1
Changed value of parameter LazyConstraints to 1
   Prev: 0  Min: 0  Max: 1  Default: 0
Parameter OutputFlag unchanged
   Value: 1  Min: 0  Max: 1  Default: 1
Changed value of parameter LazyConstraints to 1
   Prev: 0  Min: 0  Max: 1  Default: 0

Gurobi 7.0.1 (win64, Python) logging started 03/31/17 12:56:38

Warning: Gurobi version mismatch between Python 7.0.2 and C library 7.0.1
Parameter OutputFlag unchanged
   Value: 1  Min: 0  Max: 1  Default: 1
Changed value of parameter LazyConstraints to 1
   Prev: 0  Min: 0  Max: 1  Default: 0
Parameter OutputFlag unchanged
   Value: 1  Min: 0  Max: 1  Default: 1
Changed value of parameter LazyConstraints to 1
   Prev: 0  Min: 0  Max: 1  Default: 0

Gurobi 7.0.1 (win64, Python) logging started 03/31/17 13:20:47

Warning: Gurobi version mismatch between Python 7.0.2 and C library 7.0.1
Parameter OutputFlag unchanged
   Value: 1  Min: 0  Max: 1  Default: 1
Changed value of parameter LazyConstraints to 1
   Prev: 0  Min: 0  Max: 1  Default: 0
Parameter OutputFlag unchanged
   Value: 1  Min: 0  Max: 1  Default: 1
Changed value of parameter LazyConstraints to 1
   Prev: 0  Min: 0  Max: 1  Default: 0

Gurobi 7.0.1 (win64, Python) logging started 03/31/17 13:25:20

Warning: Gurobi version mismatch between Python 7.0.2 and C library 7.0.1
Parameter OutputFlag unchanged
   Value: 1  Min: 0  Max: 1  Default: 1
Changed value of parameter LazyConstraints to 1
   Prev: 0  Min: 0  Max: 1  Default: 0
Parameter OutputFlag unchanged
   Value: 1  Min: 0  Max: 1  Default: 1
Changed value of parameter LazyConstraints to 1
   Prev: 0  Min: 0  Max: 1  Default: 0

Gurobi 7.0.1 (win64, Python) logging started 03/31/17 13:27:08

Warning: Gurobi version mismatch between Python 7.0.2 and C library 7.0.1
Parameter OutputFlag unchanged
   Value: 1  Min: 0  Max: 1  Default: 1
Changed value of parameter LazyConstraints to 1
   Prev: 0  Min: 0  Max: 1  Default: 0
Parameter OutputFlag unchanged
   Value: 1  Min: 0  Max: 1  Default: 1
Changed value of parameter LazyConstraints to 1
   Prev: 0  Min: 0  Max: 1  Default: 0

Gurobi 7.0.1 (win64, Python) logging started 03/31/17 13:30:21

Warning: Gurobi version mismatch between Python 7.0.2 and C library 7.0.1
Parameter OutputFlag unchanged
   Value: 1  Min: 0  Max: 1  Default: 1
Changed value of parameter LazyConstraints to 1
   Prev: 0  Min: 0  Max: 1  Default: 0
Parameter OutputFlag unchanged
   Value: 1  Min: 0  Max: 1  Default: 1
Changed value of parameter LazyConstraints to 1
   Prev: 0  Min: 0  Max: 1  Default: 0

Gurobi 7.0.1 (win64, Python) logging started 03/31/17 13:42:13

Warning: Gurobi version mismatch between Python 7.0.2 and C library 7.0.1
Parameter OutputFlag unchanged
   Value: 1  Min: 0  Max: 1  Default: 1
Changed value of parameter LazyConstraints to 1
   Prev: 0  Min: 0  Max: 1  Default: 0
Parameter OutputFlag unchanged
   Value: 1  Min: 0  Max: 1  Default: 1
Changed value of parameter LazyConstraints to 1
   Prev: 0  Min: 0  Max: 1  Default: 0

Gurobi 7.0.1 (win64, Python) logging started 03/31/17 15:37:39

Warning: Gurobi version mismatch between Python 7.0.2 and C library 7.0.1
Parameter OutputFlag unchanged
   Value: 1  Min: 0  Max: 1  Default: 1

Gurobi 7.0.1 (win64, Python) logging started 03/31/17 16:55:18

Warning: Gurobi version mismatch between Python 7.0.2 and C library 7.0.1
Parameter OutputFlag unchanged
   Value: 1  Min: 0  Max: 1  Default: 1
Changed value of parameter LazyConstraints to 1
   Prev: 0  Min: 0  Max: 1  Default: 0
Parameter OutputFlag unchanged
   Value: 1  Min: 0  Max: 1  Default: 1
Changed value of parameter LazyConstraints to 1
   Prev: 0  Min: 0  Max: 1  Default: 0

Gurobi 7.0.1 (win64, Python) logging started 03/31/17 16:56:52

Warning: Gurobi version mismatch between Python 7.0.2 and C library 7.0.1
Parameter OutputFlag unchanged
   Value: 1  Min: 0  Max: 1  Default: 1
Changed value of parameter LazyConstraints to 1
   Prev: 0  Min: 0  Max: 1  Default: 0
Parameter OutputFlag unchanged
   Value: 1  Min: 0  Max: 1  Default: 1
Changed value of parameter LazyConstraints to 1
   Prev: 0  Min: 0  Max: 1  Default: 0

Gurobi 7.0.1 (win64, Python) logging started 03/31/17 17:23:55

Warning: Gurobi version mismatch between Python 7.0.2 and C library 7.0.1
Parameter OutputFlag unchanged
   Value: 1  Min: 0  Max: 1  Default: 1
Changed value of parameter LazyConstraints to 1
   Prev: 0  Min: 0  Max: 1  Default: 0
Parameter OutputFlag unchanged
   Value: 1  Min: 0  Max: 1  Default: 1
Changed value of parameter LazyConstraints to 1
   Prev: 0  Min: 0  Max: 1  Default: 0

Gurobi 7.0.1 (win64, Python) logging started 03/31/17 17:35:42

Warning: Gurobi version mismatch between Python 7.0.2 and C library 7.0.1
Parameter OutputFlag unchanged
   Value: 1  Min: 0  Max: 1  Default: 1
Changed value of parameter LazyConstraints to 1
   Prev: 0  Min: 0  Max: 1  Default: 0
Parameter OutputFlag unchanged
   Value: 1  Min: 0  Max: 1  Default: 1
Changed value of parameter LazyConstraints to 1
   Prev: 0  Min: 0  Max: 1  Default: 0

Gurobi 7.0.1 (win64, Python) logging started 03/31/17 18:33:36

Warning: Gurobi version mismatch between Python 7.0.2 and C library 7.0.1
Parameter OutputFlag unchanged
   Value: 1  Min: 0  Max: 1  Default: 1
Changed value of parameter LazyConstraints to 1
   Prev: 0  Min: 0  Max: 1  Default: 0
Parameter OutputFlag unchanged
   Value: 1  Min: 0  Max: 1  Default: 1
Changed value of parameter LazyConstraints to 1
   Prev: 0  Min: 0  Max: 1  Default: 0
